(set-logic BV) (define-fun origCir ((n162 Bool) (n166 Bool) (n214 Bool) (n210 Bool) (n118 Bool) (n113 Bool)) Bool (and (and (xor (xor (xor n214 n210) (not (xor n166 n162))) (not (xor n118 n113))) (xor (and (not (xor n214 n210)) (not (xor n166 n162))) (not (and (not (xor (xor n214 n210) (not (xor n166 n162)))) (not (xor n118 n113)))))) (xor (and (not (xor (and (not (xor n214 n210)) (not (xor n166 n162))) (not (and (not (xor (xor n214 n210) (not (xor n166 n162)))) (not (xor n118 n113)))))) (and (not (xor (xor n214 n210) (not (xor n166 n162)))) (not (xor n118 n113)))) (not (and (not (xor (xor n214 n210) (not (xor n166 n162)))) (not (xor n118 n113))))))) (synth-fun skel ((n162 Bool) (n166 Bool) (n214 Bool) (n210 Bool) (n118 Bool) (n113 Bool)) Bool) (declare-var n162 Bool) (declare-var n166 Bool) (declare-var n214 Bool) (declare-var n210 Bool) (declare-var n118 Bool) (declare-var n113 Bool) (constraint (= (origCir n162 n166 n214 n210 n118 n113) (skel n162 n166 n214 n210 n118 n113))) (check-synth)
